7630
22215
18220
22249
31876
22573
8400
18501
22006
12033
11046
26161
14581
31351
16931
15611
10461
30803
11820
32210
5233
14984
29431
18713
14036
12590
24529
12637
30514
30964
25278
10432
32642
18236
25541
7021
10140
10351
10180
26496
15922
29372
5385
9376
9077
27857
7502
4754
26265
21458
606
30684
10621
31157
29634
30182
32411
4238
1333
24726
14620
31974
31873
9346
26952
32587
10216
997
25823
9811
12424
15305
13472
32614
15516
15540
26809
19178
29502
4722
7234
19356
6757
28089
12315
27387
7059
2194
18619
10592
31993
21492
17863
8618
10776
3572
16472
25773
11443
17582
